Base=4;
C=72;
start_setup=[|0,0,0,0,0,13,0,4,0,0,0,0,0,0,0,16
             |0,0,0,0,0,0,0,0,0,0,0,0,0,0,0,11
             |0,4,0,0,0,0,0,0,0,0,0,0,0,0,0,0
             |0,0,0,0,0,0,0,0,0,0,3,0,0,0,0,0
             |0,0,0,4,0,0,0,0,0,0,0,0,11,0,15,0
             |0,0,0,0,0,0,0,0,0,0,0,0,0,0,0,0
             |0,0,0,0,0,0,9,0,0,0,0,11,0,0,7,0
             |15,0,0,0,0,0,0,0,0,0,0,0,0,0,1,0
             |0,2,0,0,0,0,0,0,13,0,0,0,0,0,0,0
             |0,0,0,0,0,0,0,0,0,0,11,0,0,0,0,7
             |0,0,0,0,0,0,0,0,0,1,0,0,14,0,0,0
             |0,0,0,0,0,0,0,0,5,0,0,0,0,0,0,0
             |4,0,0,0,0,7,0,0,0,0,0,9,0,0,0,0
             |0,0,0,0,0,0,0,0,4,0,0,0,0,11,0,0
             |0,11,10,0,0,3,0,1,0,15,0,0,0,0,0,0
             |0,0,0,0,0,0,0,9,0,7,0,5,4,0,0,0
|];
target_sum=[16,12,69,46,3,2,65,78,3,24,8,8,11,27,20,53,9,39,4,32,25,13,29,54,46,30,12,42,61,33,59,11,121,30,21,25,11,8,37,52,34,42,15,12,30,92,3,1,26,14,53,14,16,14,11,14,2,32,45,60,44,83,24,122,6,6,9,52,12,2,21,16];
tile2cage=[
19,64,64,64,20,20,42,42,42,42,39,63,63,32,32,61
,19,64,64,64,20,34,34,24,42,60,39,63,25,25,25,61
,62,64,64,64,20,34,12,24,24,60,39,39,25,3,61,61
,62,64,64,64,6,36,12,24,60,60,59,59,59,3,11,61
,62,64,68,68,68,36,69,24,60,60,59,59,59,3,3,65
,62,62,68,68,68,36,13,13,57,60,44,56,56,17,3,3
,62,62,40,27,27,36,14,14,29,29,49,49,31,41,41,41
,62,40,40,40,8,72,14,14,29,29,29,53,31,31,31,41
,62,18,18,37,8,8,8,8,29,29,53,53,66,31,21,41
,18,18,18,18,48,8,8,8,10,10,55,52,31,31,21,21
,35,18,30,58,58,58,16,70,10,10,15,15,54,7,7,43
,35,30,30,51,51,58,16,16,16,16,4,4,4,4,7,7
,35,47,30,51,51,51,46,46,46,50,4,67,1,4,7,7
,33,33,33,71,71,51,46,46,46,50,9,9,2,28,28,7
,33,33,33,33,26,26,46,46,46,23,23,45,45,28,28,28
,33,33,33,33,26,26,46,46,38,22,22,45,45,5,28,28];
